\ENCODING=ISO-8859-1
\Problem name: Q4

Minimize
 obj1: 0.04 x(1)(2) + 0.052 x(1)(3) + 0.017 x(1)(4) + 0.055 x(1)(5)
       + 0.042 x(1)(6) + 0.032 x(2)(1) + 0.041 x(2)(2) + 0.039 x(2)(3)
       + 0.027 x(2)(4) + 0.023 x(2)(5) + 0.043 x(2)(6) + 0.026 y(1)(1)
       + 0.017 y(1)(2) + 0.037 y(2)(1) + 0.017 y(2)(2) + 0.032 y(3)(1)
       + 0.033 y(3)(2)
Subject To
 demandDC(1):     x(1)(1) + x(2)(1) >= 103
 demandDC(2):     x(1)(2) + x(2)(2) >= 74
 demandDC(3):     x(1)(3) + x(2)(3) >= 50
 demandDC(4):     x(1)(4) + x(2)(4) >= 60
 demandDC(5):     x(1)(5) + x(2)(5) >= 102
 demandDC(6):     x(1)(6) + x(2)(6) >= 13
 capacityBrew(1): x(1)(1) + x(1)(2) + x(1)(3) + x(1)(4) + x(1)(5) + x(1)(6)
                  <= 220
 capacityBrew(2): x(2)(1) + x(2)(2) + x(2)(3) + x(2)(4) + x(2)(5) + x(2)(6)
                  <= 200
 beerYield(1):    x(1)(1) + x(1)(2) + x(1)(3) + x(1)(4) + x(1)(5) + x(1)(6)
                  - 8.333 y(1)(1) - 8.333 y(2)(1) - 9.091 y(3)(1) <= 0
 beerYield(2):    x(2)(1) + x(2)(2) + x(2)(3) + x(2)(4) + x(2)(5) + x(2)(6)
                  - 8.333 y(1)(2) - 8.333 y(2)(2) - 9.091 y(3)(2) <= 0
 capacityMalt(1): y(1)(1) + y(1)(2) <= 30
 capacityMalt(2): y(2)(1) + y(2)(2) <= 68
 capacityMalt(3): y(3)(1) + y(3)(2) <= 20
End
